results/res_prop_muc/res_Cimatti_mathsat_cores/QF_LRA/no_op_accs.induction.smt.smt2.res
unsat
( c107
  c108
  c184
  c185
  c202
  c248
  c362
  c390
  c42
  c43
  c458
  c46
  c47
  c48
  c493
  c504
  c557
  c94
  c98 )
